outputs/case_355.model.txt
company_issued_shares = 10000000
company_stock_and_equity_securities_per_firm = 60000000
insurance_funds = 1000000000
company_stock_and_equity_securities_shares_per_firm = 1500000
securitized_products_total = 150000000
financial_bonds_total = 400000000
fund_investment_total = 150000000
fund_issued_shares = 10000000
corporate_bonds_and_commercial_paper_per_firm = 60000000
company_equity = 100000000
fund_investment_per_fund_shares = 1500000
corporate_bonds_and_commercial_paper_total = 400000000
company_stock_and_equity_securities_total = 300000000
corporate_bonds_and_commercial_paper_equity_per_firm = 15000000
insurance_trustee_supervisor = False
investment_limit_financial_bonds = 1
prohibited_investment_conditions = True
investment_limit_corporate_bonds_per_firm_equity = 1
insurance_or_third_party_agreement = False
investment_limit_stock_and_bond_combined = 1
insurance_or_representative_director = False
investment_limit_fund_total = 1
investment_limit_corporate_bonds_per_firm = 1
investment_limit_fund_per_fund_shares = 1
investment_limit_securitized_products = 1
investment_limit_company_stock_per_firm = 1
penalty = False
insurance_or_representative_vote = False
insurance_or_representative_manager = False
investment_limit_company_stock_per_firm_shares = 1